c File: instances/26_0.05_3.col
c
c Description: Random graph of size 26 vertices and P(0.05) of edges between any two vertices.
p col 26 325
e 1 12
e 4 25
e 5 9
e 5 15
e 5 18
e 6 9
e 10 21
e 11 20
e 13 22
e 14 22
e 14 25
e 15 17
e 15 25
e 16 21
e 19 23
e 19 25
e 20 22
e 23 25